4100551056961711868502,7,1,2,09,3,1,2,015,8,1,2,01,11,1,2,03,1,1,2,04,13,1,2,02,14,1,2,07,4,1,2,02,10,1,2,03,7,1,2,05,13,1,2,08,15,1,2,010,12,1,2,010,1,1,2,011,6,1,2,011,1,1,2,010,13,1,2,014,1,1,2,01,9,1,2,07,8,1,2,015,5,1,2,011,14,1,2,015,15,1,2,010,10,1,2,012,6,1,2,012,10,1,2,013,10,1,2,05,11,1,2,05,5,1,2,07,10,1,2,01,1,1,2,05,2,1,2,010,6,1,2,06,14,1,2,011,5,1,2,07,11,1,2,014,3,1,2,07,3,1,2,014,1,1,2,07,9,1,2,03,15,1,2,09,14,1,2,02,10,1,2,08,3,1,2,09,4,1,2,013,13,1,2,01,12,1,2,012,6,1,2,02,4,1,2,011,10,1,2,0